plugins/optim/benchs/coconutbenchmark-library2/ex2_1_7.sol
ê3

Options
3
3
1
0
10
0
20
20
»
»
1.04289992397017
»
»
»
»
»
»
»
1.74674379020835
»
0.431470883855429
»
»
4.43305027389141
»
15.8589317575612
»
16.4869033695136
objno 0 0
